108 300 96 54 87 62 70 55 78 95 90 76 80 74 57 65 70 91 54 92 99 55 68 96 50 94 83 97 94 85 76 95 58 71 74 96 57 94 75 59 88 64 86 93 63 67 57 57 83 87 73 81 66 92 50 66 59 57 88 53 66 63 72 75 58 96 95 66 64 69 75 51 58 85 68 96 77 50 52 59 87 50 64 52 92 89 93 75 70 80 78 86 93 75 85 76 70 79 92 58 73 91 85 81 50 52 76 51 52 52 